letting n =  10
letting blocks =  [[1, 1], [1, 5], [1, 7], [1, 8], [1, 9], [2, 3], [2, 9], [2, 10], [3, 3], [3, 5], [3, 6], [3, 7], [3, 10], [4, 2], [4, 3], [4, 8], [5, 1], [5, 2], [5, 9], [6, 1], [6, 2], [6, 4], [6, 7], [6, 8], [7, 2], [7, 6], [7, 7], [7, 8], [8, 1], [8, 3], [8, 4], [8, 6], [8, 8], [8, 10], [9, 9], [9, 10], [10, 2], [10, 3], [10, 9], [10, 10]]
